p cnf 15 21
15 13 9 0
15 11 -4 0
-15 9 1 0
15 -5 3 0
-14 10 3 0
14 -10 1 0
-14 9 -5 0
14 8 2 0
13 11 3 0
13 6 2 0
-12 -10 -8 0
12 8 -2 0
-11 -9 -6 0
11 -7 3 0
-11 7 -3 0
-11 -5 -3 0
-10 7 -2 0
-8 5 -4 0
6 -5 -4 0
6 -5 3 0
6 -5 -1 0
